
Log started (V12.10.0.0) Fri Apr 23 07:46:16 2021


Problem 'asset.lp' read.
Read time = 0.01 sec. (0.75 ticks)
New value for default parallel thread count: 1
New value for time limit in seconds: 150
Version identifier: 12.10.0.0 | 2019-11-26 | 843d4de
CPXPARAM_Threads                                 1
CPXPARAM_TimeLimit                               150
Found incumbent of value 0.000000 after 0.00 sec. (0.18 ticks)
Tried aggregator 3 times.
MIP Presolve eliminated 3419 rows and 349 columns.
MIP Presolve modified 4750 coefficients.
Aggregator did 1774 substitutions.
Reduced MIP has 2411 rows, 2998 columns, and 12870 nonzeros.
Reduced MIP has 2424 binaries, 505 generals, 0 SOSs, and 0 indicators.
Presolve time = 0.03 sec. (28.85 ticks)
Probing fixed 100 vars, tightened 31 bounds.
Probing time = 0.02 sec. (15.70 ticks)
Cover probing fixed 0 vars, tightened 3 bounds.
Tried aggregator 2 times.
Detecting symmetries...
MIP Presolve eliminated 223 rows and 175 columns.
MIP Presolve modified 700 coefficients.
Aggregator did 3 substitutions.
Reduced MIP has 2185 rows, 2820 columns, and 11580 nonzeros.
Reduced MIP has 2280 binaries, 473 generals, 0 SOSs, and 0 indicators.
Presolve time = 0.02 sec. (18.83 ticks)
Probing time = 0.00 sec. (3.29 ticks)
Cover probing fixed 0 vars, tightened 6 bounds.
Clique table members: 8038.
Tightened 6 constraints.
MIP emphasis: balance optimality and feasibility.
MIP search method: dynamic search.
Parallel mode: none, using 1 thread.
Root relaxation solution time = 0.04 sec. (61.21 ticks)

        Nodes                                         Cuts/
   Node  Left     Objective  IInf  Best Integer    Best Bound    ItCnt     Gap

*     0+    0                            0.0000      915.0000              --- 
      0     0      847.5000   385        0.0000      847.5000      973     --- 
      0     0      845.0000   385        0.0000     Cuts: 376     1722     --- 
      0     0      845.0000   385        0.0000     Cuts: 646     2629     --- 
      0     0      845.0000   385        0.0000     Cuts: 191     3131     --- 
*     0+    0                           40.0000      845.0000              --- 
      0     0        cutoff             40.0000      845.0000     3131     --- 
      0     0      845.0000   385       40.0000     Cuts: 646     4113     --- 
*     0+    0                           45.0000      845.0000              --- 
Detecting symmetries...
      0     2      845.0000   350       45.0000      845.0000     4113     --- 
Elapsed time = 1.68 sec. (2388.17 ticks, tree = 0.01 MB, solutions = 2)
      4     6      845.0000   328       45.0000      845.0000     6136     --- 
     10    12      839.9418   358       45.0000      845.0000     7771     --- 
     12    14      839.2397   420       45.0000      845.0000     9576     --- 
     16    18      832.4074   395       45.0000      845.0000    11571     --- 
     19    20      821.9806   403       45.0000      845.0000    14294     --- 
     26    27      844.8805   352       45.0000      845.0000    16980     --- 
     30    31      844.8805   335       45.0000      845.0000    17157     --- 
     41    42      844.8805   378       45.0000      845.0000    19492     --- 
     45    46      824.7428   374       45.0000      845.0000    21531     --- 
     80    79      839.3491   316       45.0000      845.0000    27255     --- 
Elapsed time = 4.06 sec. (5991.45 ticks, tree = 0.84 MB, solutions = 2)
    160   153      801.9827   263       45.0000      845.0000    35293     --- 
    387   318      831.4742   400       45.0000      845.0000    46149     --- 
    445   374      742.8426   234       45.0000      845.0000    55380     --- 
*   489+  413                          145.0000      845.0000           482.76%
*   489+  413                          160.0000      845.0000           428.12%
*   490+  414                          330.0000      845.0000           156.06%
*   490+  414                          340.0000      845.0000           148.53%
*   491+  415                          410.0000      845.0000           106.10%
*   491+  415                          430.0000      845.0000            96.51%
    491   417      829.1653   405      430.0000      845.0000    60180   96.51%
    549   475      756.6353   262      430.0000      845.0000    67615   96.51%

Performing restart 1

Repeating presolve.
Tried aggregator 1 time.
MIP Presolve eliminated 4 rows and 4 columns.
MIP Presolve modified 3344 coefficients.
Reduced MIP has 2181 rows, 2816 columns, and 9820 nonzeros.
Reduced MIP has 2276 binaries, 473 generals, 0 SOSs, and 0 indicators.
Presolve time = 0.01 sec. (8.55 ticks)
Tried aggregator 1 time.
Reduced MIP has 2181 rows, 2816 columns, and 9820 nonzeros.
Reduced MIP has 2276 binaries, 473 generals, 0 SOSs, and 0 indicators.
Presolve time = 0.01 sec. (6.77 ticks)
Represolve time = 0.06 sec. (44.15 ticks)
    601     0      824.9997   481      430.0000     Cuts: 643    75397   91.86%
    601     0      815.8197   481      430.0000     Cuts: 532    77701   89.73%
    601     0      808.7661   481      430.0000     Cuts: 555    79898   88.09%
    601     0      806.3138   481      430.0000     Cuts: 470    80918   87.51%
    601     0      803.5504   481      430.0000     Cuts: 429    82553   86.87%
    601     0      801.7104   481      430.0000     Cuts: 435    84370   86.44%
    601     0      800.7418   481      430.0000     Cuts: 371    85683   86.22%
    601     0      799.1886   481      430.0000     Cuts: 275    87128   85.86%
    601     0      798.1546   481      430.0000     Cuts: 333    88361   85.62%
    601     0      796.8403   481      430.0000     Cuts: 405    89635   85.31%
    601     0      795.9735   481      430.0000     Cuts: 259    90909   85.11%
    601     0      795.5440   481      430.0000     Cuts: 301    91522   85.01%
    601     0      795.1195   481      430.0000     Cuts: 237    92482   84.91%
    601     0      794.9163   481      430.0000     Cuts: 341    93346   84.86%
    601     0      794.6223   481      430.0000     Cuts: 247    94494   84.80%
    601     0      794.3755   481      430.0000     Cuts: 343    95540   84.74%
    601     0      794.2928   481      430.0000     Cuts: 280    96207   84.72%
    601     0      794.2277   481      430.0000     Cuts: 191    97070   84.70%
    601     0      794.0446   481      430.0000     Cuts: 311    97834   84.66%
    601     0      793.8501   481      430.0000     Cuts: 269    98884   84.62%
    601     0      793.5203   481      430.0000     Cuts: 310   100437   84.54%
    601     0      793.4044   481      430.0000     Cuts: 276   101222   84.51%
    601     0      793.0231   481      430.0000     Cuts: 269   102719   84.42%
    601     0      792.7919   481      430.0000     Cuts: 319   104134   84.37%
    601     0      792.6833   481      430.0000     Cuts: 315   104910   84.34%
    601     0      792.6470   481      430.0000     Cuts: 186   105364   84.34%
    601     0      792.5662   481      430.0000     Cuts: 193   105619   84.32%
    601     0      792.5364   481      430.0000     Cuts: 160   105758   84.31%
*   601+    0                          435.0000      792.5364            82.19%
    601     2      792.5364   503      435.0000      792.5316   105758   82.19%
    604     5      773.3704   401      435.0000      792.4978   109255   82.18%
    607     8      779.8083   406      435.0000      791.8677   111460   82.04%
    610    11      773.6053   414      435.0000      791.5851   115979   81.97%
    614    15      784.7920   403      435.0000      791.5851   120782   81.97%
Elapsed time = 31.77 sec. (42341.50 ticks, tree = 0.06 MB, solutions = 9)
    621    21      773.6360   392      435.0000      791.5851   124189   81.97%
    629    29      771.4538   391      435.0000      791.5851   129100   81.97%
    635    35      756.8256   366      435.0000      791.5851   133896   81.97%
    641    41      764.1175   373      435.0000      791.5851   137196   81.97%
    649    49      755.9642   348      435.0000      791.5851   142309   81.97%
    656    56      742.1623   325      435.0000      791.5851   150062   81.97%
    668    67      736.4953   321      435.0000      791.5851   155926   81.97%
    682    81      737.9315   296      435.0000      791.5851   161411   81.97%
    701   100      706.8981   278      435.0000      791.5851   166024   81.97%
    712   110      686.4704   217      435.0000      791.5851   171480   81.97%
Elapsed time = 39.13 sec. (53650.38 ticks, tree = 0.51 MB, solutions = 9)
    781   155        cutoff            435.0000      791.5851   178004   81.97%
    783   155      785.7205   446      435.0000      791.1429   181430   81.87%
    789   161      775.9982   414      435.0000      791.1429   186900   81.87%
    792   164      775.7982   413      435.0000      791.1429   193064   81.87%
    797   168      757.7817   356      435.0000      791.1429   199332   81.87%
    811   182      743.5811   304      435.0000      791.1429   206088   81.87%
    819   190      730.9596   346      435.0000      791.1429   212781   81.87%
    832   203      716.5829   349      435.0000      791.1429   218305   81.87%
    859   230      697.6606   242      435.0000      791.1429   225861   81.87%
    868   239      678.5561   206      435.0000      791.1429   234457   81.87%
Elapsed time = 46.69 sec. (64452.77 ticks, tree = 0.87 MB, solutions = 9)
    887   258      667.5000   183      435.0000      791.1429   240810   81.87%
*   901+  270                          455.0000      791.1429            73.88%
*   901+  270                          465.0000      791.1429            70.14%
*   901+  270                          470.0000      791.1429            68.33%
    901   272      645.0000   195      470.0000      791.1429   248390   68.33%
    959   309      786.4234   466      470.0000      790.3480   258442   68.16%
    961   311      777.4703   456      470.0000      790.3480   260168   68.16%
    967   317      769.4412   414      470.0000      790.3480   265240   68.16%
    975   325      765.3800   461      470.0000      790.3480   270812   68.16%
    980   330      751.5134   357      470.0000      790.3480   276853   68.16%
    987   337      744.5858   298      470.0000      790.3480   282099   68.16%
    999   349      736.9699   270      470.0000      790.3480   287048   68.16%
*  1001+  349                          485.0000      790.3480            62.96%
   1001   351      735.2456   281      485.0000      790.3480   287751   62.96%
Elapsed time = 55.79 sec. (76977.25 ticks, tree = 1.12 MB, solutions = 13)
   1003   353      785.8924   446      485.0000      790.1340   289433   62.91%
   1007   357      773.9555   439      485.0000      790.1340   295167   62.91%
   1015   365      768.0676   427      485.0000      790.1340   300203   62.91%
   1024   374      762.0645   381      485.0000      790.1340   306023   62.91%
   1033   383      755.8324   399      485.0000      790.1340   312216   62.91%
   1046   396      751.9341   385      485.0000      790.1340   318726   62.91%
   1069   419      741.8274   317      485.0000      790.1340   326047   62.91%
*  1101+  448                          495.0000      790.1340            59.62%
   1101   450      687.2316   247      495.0000      790.1340   331367   59.62%
   1104   449      779.0771   447      495.0000      786.5291   334794   58.89%
   1108   453      774.2904   385      495.0000      786.5291   340657   58.89%
Elapsed time = 64.00 sec. (88427.83 ticks, tree = 1.27 MB, solutions = 14)
   1118   463      766.7821   375      495.0000      786.5291   348180   58.89%
   1136   481      749.4548   326      495.0000      786.5291   353047   58.89%
   1183   524      675.4699   251      495.0000      786.5291   358241   58.89%
   1201   537      660.7218   231      495.0000      786.5291   358762   58.89%
   1231   555      773.6051   461      495.0000      786.3708   364191   58.86%
   1239   563      744.8340   407      495.0000      786.3708   368241   58.86%
   1248   571      740.0551   366      495.0000      786.3708   370917   58.86%
   1253   576      704.6008   334      495.0000      786.3708   377348   58.86%
   1260   582      663.8211   261      495.0000      786.3708   384040   58.86%
*  1301+  621                          505.0000      786.3708            55.72%
   1301   623      620.0696   183      505.0000      786.3708   387992   55.72%
Elapsed time = 73.69 sec. (101448.33 ticks, tree = 4.50 MB, solutions = 15)
   1336   653      776.8216   410      505.0000      786.1235   392130   55.67%
   1359   676      760.9082   395      505.0000      786.1235   397317   55.67%
   1392   709      674.6393   253      505.0000      786.1235   402208   55.67%
*  1401+  716                          515.0000      786.1235            52.65%
   1401   718      667.7005   222      515.0000      786.1235   402657   52.65%
   1446   748      776.4246   412      515.0000      785.8788   409377   52.60%
   1457   759      761.0373   394      515.0000      785.8788   413674   52.60%
   1490   792      706.2713   284      515.0000      785.8788   419036   52.60%
*  1501+  801                          520.0000      785.8788            51.13%
*  1501+  801                          525.0000      785.8788            49.69%
*  1501+  801                          530.0000      785.8788            48.28%
   1501   803      648.6883   189      530.0000      785.8788   420554   48.28%
   1521   815      783.3958   488      530.0000      785.8620   424079   48.28%
   1526   820      776.9301   433      530.0000      785.8620   429090   48.28%
Elapsed time = 82.24 sec. (113663.99 ticks, tree = 9.14 MB, solutions = 19)
   1538   832      763.9932   391      530.0000      785.8620   433697   48.28%
   1557   851      744.8673   353      530.0000      785.8620   439109   48.28%
   1582   876      707.6870   286      530.0000      785.8620   443999   48.28%
   1601   895      699.2134   271      530.0000      785.8620   446704   48.28%
   1606   896      783.9337   426      530.0000      785.7919   450580   48.26%
   1618   908      771.3524   406      530.0000      785.7919   456086   48.26%
   1644   934      750.4806   349      530.0000      785.7919   462116   48.26%
   1692   976      775.7344   503      530.0000      785.7193   469437   48.25%
   1700   984      756.0444   478      530.0000      785.7193   478163   48.25%
   1701   985      760.5365   444      530.0000      785.7193   478674   48.25%
Elapsed time = 92.02 sec. (126912.48 ticks, tree = 11.26 MB, solutions = 19)
   1704   988      749.2759   475      530.0000      785.7193   484883   48.25%
   1715   998      692.4357   299      530.0000      785.7193   490957   48.25%
   1744  1027      670.2622   212      530.0000      785.7193   497212   48.25%
*  1801+ 1073                          535.0000      785.7193            46.86%
*  1801+ 1073                          540.0000      785.7193            45.50%
*  1801+ 1073                          550.0000      785.7193            42.86%
   1801  1075      632.5000   130      550.0000      785.7193   501171   42.86%
   1830  1096      769.2108   348      550.0000      785.2138   505632   42.77%
   1860  1126      744.5094   335      550.0000      785.2138   511104   42.77%
   1883  1145      764.5883   411      550.0000      784.7713   518117   42.69%
   1897  1159      741.6660   357      550.0000      784.7713   524540   42.69%
   1901  1163      740.5790   355      550.0000      784.7713   524811   42.69%
   1997  1250      757.4166   428      550.0000      784.7200   538861   42.68%
Elapsed time = 101.85 sec. (140456.05 ticks, tree = 17.84 MB, solutions = 22)
   2033  1286      709.3490   330      550.0000      784.7200   547297   42.68%
   2077  1324      746.9176   406      550.0000      783.8908   567208   42.53%
   2148  1394      670.7241   272      550.0000      783.8908   581894   42.53%
*  2201+ 1435                          555.0000      783.6240            41.19%
   2204  1440      731.8704   401      555.0000      783.6240   593635   41.19%
   2236  1472      689.1879   304      555.0000      783.6240   613070   41.19%
   2301  1535      651.7952   213      555.0000      783.6240   626751   41.19%
   2406  1630        cutoff            555.0000      783.3746   647307   41.15%
   2468  1687      692.1604   329      555.0000      782.9766   665525   41.08%
   2571  1781      694.6360   285      555.0000      782.8803   682770   41.06%
   2717  1916      731.5364   412      555.0000      782.8486   700736   41.05%
Elapsed time = 131.04 sec. (180537.32 ticks, tree = 32.62 MB, solutions = 23)
   2800  1995      759.7775   399      555.0000      782.3868   721221   40.97%
Starting limited solution polishing.
   2809  2004      741.8651   432      555.0000      782.3868   733402   40.97%
   2911  2095      773.8507   401      555.0000      782.1237   756114   40.92%
   3001  2177      756.7771   415      555.0000      781.4484   775993   40.80%
   3089  2259      734.3981   352      555.0000      781.0099   800362   40.72%
   3161  2323      773.0149   438      555.0000      780.8914   812749   40.70%

GUB cover cuts applied:  150
Clique cuts applied:  85
Cover cuts applied:  52
Implied bound cuts applied:  192
Flow cuts applied:  27
Mixed integer rounding cuts applied:  270
Zero-half cuts applied:  108
Lift and project cuts applied:  46
Gomory fractional cuts applied:  6

Root node processing (before b&c):
  Real time             =    1.66 sec. (2377.53 ticks)
Sequential b&c:
  Real time             =  148.34 sec. (203903.51 ticks)
                          ------------
Total (root+branch&cut) =  150.00 sec. (206281.05 ticks)

Solution pool: 24 solutions saved.

MIP - Time limit exceeded, integer feasible:  Objective =  5.5500000000e+02
Current MIP best bound =  7.8089137665e+02 (gap = 225.891, 40.70%)
Solution time =  150.00 sec.  Iterations = 824938  Nodes = 3177 (2338)
Deterministic time = 206281.06 ticks  (1375.20 ticks/sec)


Incumbent solution
Variable Name           Solution Value
F                           555.000000
y251                          1.000000
y70                           1.000000
y89                           1.000000
y79                           1.000000
y206                          1.000000
y134                          1.000000
y207                          1.000000
y129                          1.000000
y205                          1.000000
y22                           1.000000
y228                          1.000000
y196                          1.000000
y5                            1.000000
y133                          1.000000
y112                          1.000000
y150                          1.000000
y28                           1.000000
y15                           1.000000
y224                          1.000000
y72                           1.000000
y9                            1.000000
y168                          1.000000
y246                          1.000000
y197                          1.000000
y213                          1.000000
y171                          1.000000
y176                          1.000000
y80                           1.000000
y217                          1.000000
y221                          1.000000
y138                          1.000000
y61                           1.000000
y75                           1.000000
y179                          1.000000
y144                          1.000000
y231                          1.000000
y139                          1.000000
x167x251x1                    1.000000
x181x79x1                     1.000000
x113x70x1                     1.000000
x106x205x1                    1.000000
x78x251x1                     1.000000
x78x79x1                      1.000000
x135x205x1                    1.000000
x274x80x1                     1.000000
x136x207x1                    2.000000
x145x5x1                      1.000000
x240x228x1                    1.000000
x111x246x2                    2.000000
x259x22x2                     1.000000
x259x15x2                     1.000000
x98x89x2                      2.000000
x162x206x2                    1.000000
x193x134x2                    1.000000
x193x196x2                    1.000000
x274x206x2                    1.000000
x53x213x2                     2.000000
x58x133x3                     2.000000
x241x129x3                    1.000000
x241x196x3                    1.000000
x260x70x3                     1.000000
x162x134x3                    1.000000
x214x22x3                     1.000000
x214x5x3                      1.000000
x145x72x3                     1.000000
x240x150x3                    1.000000
x232x197x3                    2.000000
x251x129x1                    1.000000
x251x28x1                     1.000000
x70x15x1                      1.000000
x70x28x3                      1.000000
x89x224x2                     2.000000
x79x228x1                     1.000000
x79x150x1                     1.000000
x206x171x2                    1.000000
x206x61x2                     1.000000
x134x168x2                    1.000000
x134x168x3                    1.000000
x207x9x1                      2.000000
x129x176x1                    1.000000
x129x72x3                     1.000000
x205x112x1                    2.000000
x22x179x2                     1.000000
x22x171x3                     1.000000
x228x176x1                    1.000000
x228x61x1                     1.000000
x196x179x2                    1.000000
x196x138x3                    1.000000
x5x75x1                       1.000000
x5x139x3                      1.000000
x133x0x3                      2.000000
x112x0x1                      2.000000
x150x80x1                     1.000000
x150x138x3                    1.000000
x28x231x1                     1.000000
x28x0x3                       1.000000
x15x0x1                       1.000000
x15x139x2                     1.000000
x224x144x2                    2.000000
x72x0x3                       2.000000
x9x0x1                        2.000000
x168x0x2                      1.000000
x168x0x3                      1.000000
x246x221x2                    2.000000
x197x217x3                    2.000000
x213x75x2                     1.000000
x213x231x2                    1.000000
x171x0x2                      1.000000
x171x0x3                      1.000000
x176x0x1                      2.000000
x80x0x1                       2.000000
x217x0x3                      2.000000
x221x0x2                      2.000000
x138x0x3                      2.000000
x61x0x1                       1.000000
x61x0x2                       1.000000
x75x0x1                       1.000000
x75x0x2                       1.000000
x179x0x2                      2.000000
x144x0x2                      2.000000
x231x0x1                      1.000000
x231x0x2                      1.000000
x139x0x2                      1.000000
x139x0x3                      1.000000
s58                           6.471202
s7                            7.637059
s129                          7.534625
s172                          7.120000
s22                           7.597234
s196                          7.762990
s5                            7.779771
s143                          8.200000
s120                          8.220000
s133                          7.967356
z58z133z3                     1.000000
s39                           7.250000
s150                          7.861792
s2                            7.380000
s28                           8.099931
s233                          7.390000
s8                            8.540000
s74                           7.570000
s72                           8.620000
s168                          8.570421
s197                          7.770000
s115                          7.780000
s171                          8.800000
s41                           8.628909
s175                          8.870001
s130                          9.070000
z58z130z3                     1.000000
s217                          9.110000
z58z217z3                     1.000000
s138                          9.200000
z58z138z3                     1.000000
s139                          9.490000
s111                          6.397410
s17                           8.300000
s15                           8.012990
s224                          8.032550
s246                          7.866224
z111z246z2                    1.000000
s213                          7.801653
s54                           8.030000
s221                          9.130000
z111z221z2                    1.000000
s61                           9.092635
s75                           9.260000
s179                          9.266196
z111z179z2                    1.000000
s144                          9.400000
z111z144z2                    1.000000
s231                          9.420000
s216                          9.490000
s241                          6.154821
s230                          6.690000
s263                          6.800000
z241z129z3                    1.000000
z241z196z3                    1.000000
z241z72z3                     1.000000
z241z41z3                     1.000000
z241z175z3                    1.000000
z241z130z3                    1.000000
z241z217z3                    1.000000
z241z138z3                    1.000000
s259                          6.089943
s84                           6.490000
s77                           7.529886
s187                          6.730000
z259z22z2                     1.000000
z259z15z2                     1.000000
z259z221z2                    1.000000
z259z179z2                    1.000000
z259z144z2                    1.000000
s167                          4.606540
s251                          6.135061
z167z251z1                    1.000000
s90                           5.586396
s131                          5.590000
s268                          6.567051
s70                           6.604360
s156                          6.714869
s79                           6.418571
s272                          7.042686
s226                          6.470000
z167z226z1                    1.000000
s114                          6.550000
s207                          6.940000
z167z207z1                    1.000000
s10                           7.080000
z167z10z1                     1.000000
s66                           7.100000
z167z66z1                     1.000000
s205                          7.100000
z167z205z1                    1.000000
s228                          7.859778
z167z228z1                    1.000000
s112                          8.294365
z167z112z1                    1.000000
s247                          8.330000
z167z247z1                    1.000000
s222                          7.440000
z167z222z1                    1.000000
s257                          7.440000
z167z257z1                    1.000000
s218                          7.580000
z167z218z1                    1.000000
s9                            8.405951
z167z9z1                      1.000000
s128                          8.730000
z167z128z1                    1.000000
s176                          8.960000
z167z176z1                    1.000000
s80                           9.050000
z167z80z1                     1.000000
s189                          9.110000
z167z189z1                    1.000000
s181                          4.706480
z181z79z1                     1.000000
z181z226z1                    1.000000
z181z207z1                    1.000000
z181z10z1                     1.000000
z181z66z1                     1.000000
z181z205z1                    1.000000
z181z228z1                    1.000000
z181z112z1                    1.000000
z181z247z1                    1.000000
z181z222z1                    1.000000
z181z257z1                    1.000000
z181z218z1                    1.000000
z181z9z1                      1.000000
z181z128z1                    1.000000
z181z176z1                    1.000000
z181z80z1                     1.000000
z181z189z1                    1.000000
s260                          4.851730
s37                           5.750000
z260z70z3                     1.000000
s64                           5.910000
s254                          6.740219
s134                          7.372207
z260z7z3                      1.000000
z260z172z3                    1.000000
z260z133z3                    1.000000
z260z39z3                     1.000000
z260z2z3                      1.000000
z260z8z3                      1.000000
z260z72z3                     1.000000
z260z197z3                    1.000000
z260z41z3                     1.000000
z260z175z3                    1.000000
z260z130z3                    1.000000
z260z217z3                    1.000000
z260z138z3                    1.000000
s113                          5.106470
z113z70z1                     1.000000
z113z207z1                    1.000000
z113z10z1                     1.000000
z113z66z1                     1.000000
z113z205z1                    1.000000
z113z228z1                    1.000000
z113z112z1                    1.000000
z113z247z1                    1.000000
z113z222z1                    1.000000
z113z257z1                    1.000000
z113z218z1                    1.000000
z113z9z1                      1.000000
z113z128z1                    1.000000
z113z176z1                    1.000000
z113z80z1                     1.000000
z113z189z1                    1.000000
s98                           4.990400
s126                          5.500000
s148                          5.510000
s60                           5.610000
s89                           6.511867
z98z89z2                      1.000000
s206                          7.063645
z98z206z2                     1.000000
z98z84z2                      1.000000
z98z224z2                     1.000000
z98z246z2                     1.000000
z98z213z2                     1.000000
z98z221z2                     1.000000
z98z179z2                     1.000000
z98z144z2                     1.000000
s106                          4.953980
z106z207z1                    1.000000
z106z10z1                     1.000000
z106z66z1                     1.000000
z106z205z1                    1.000000
z106z228z1                    1.000000
z106z112z1                    1.000000
z106z247z1                    1.000000
z106z222z1                    1.000000
z106z257z1                    1.000000
z106z218z1                    1.000000
z106z9z1                      1.000000
z106z128z1                    1.000000
z106z176z1                    1.000000
z106z80z1                     1.000000
z106z189z1                    1.000000
s78                           4.678790
z78z251z1                     1.000000
z78z79z1                      1.000000
z78z226z1                     1.000000
z78z207z1                     1.000000
z78z10z1                      1.000000
z78z66z1                      1.000000
z78z205z1                     1.000000
z78z228z1                     1.000000
z78z112z1                     1.000000
z78z247z1                     1.000000
z78z222z1                     1.000000
z78z257z1                     1.000000
z78z218z1                     1.000000
z78z9z1                       1.000000
z78z128z1                     1.000000
z78z176z1                     1.000000
z78z80z1                      1.000000
z78z189z1                     1.000000
s162                          5.336530
z162z206z2                    1.000000
z162z134z3                    1.000000
z162z172z3                    1.000000
z162z133z3                    1.000000
z162z39z3                     1.000000
z162z2z3                      1.000000
z162z224z2                    1.000000
z162z8z3                      1.000000
z162z72z3                     1.000000
z162z246z2                    1.000000
z162z197z3                    1.000000
z162z213z2                    1.000000
z162z41z3                     1.000000
z162z175z3                    1.000000
z162z130z3                    1.000000
z162z217z3                    1.000000
z162z221z2                    1.000000
z162z138z3                    1.000000
z162z179z2                    1.000000
z162z144z2                    1.000000
s135                          5.134050
z135z207z1                    1.000000
z135z10z1                     1.000000
z135z66z1                     1.000000
z135z205z1                    1.000000
z135z228z1                    1.000000
z135z112z1                    1.000000
z135z247z1                    1.000000
z135z222z1                    1.000000
z135z257z1                    1.000000
z135z218z1                    1.000000
z135z9z1                      1.000000
z135z128z1                    1.000000
z135z176z1                    1.000000
z135z80z1                     1.000000
z135z189z1                    1.000000
s193                          5.702820
z193z134z2                    1.000000
z193z196z2                    1.000000
z193z246z2                    1.000000
z193z213z2                    1.000000
z193z221z2                    1.000000
z193z179z2                    1.000000
z193z144z2                    1.000000
s214                          5.913470
z214z22z3                     1.000000
z214z5z3                      1.000000
z214z133z3                    1.000000
z214z130z3                    1.000000
z214z217z3                    1.000000
z214z138z3                    1.000000
s274                          5.525980
z274z206z2                    1.000000
z274z66z1                     1.000000
z274z112z1                    1.000000
z274z222z1                    1.000000
z274z224z2                    1.000000
z274z218z1                    1.000000
z274z9z1                      1.000000
z274z246z2                    1.000000
z274z128z1                    1.000000
z274z213z2                    1.000000
z274z176z1                    1.000000
z274z80z1                     1.000000
z274z189z1                    1.000000
z274z221z2                    1.000000
z274z179z2                    1.000000
z274z144z2                    1.000000
s136                          5.133660
z136z207z1                    1.000000
z136z10z1                     1.000000
z136z66z1                     1.000000
z136z205z1                    1.000000
z136z228z1                    1.000000
z136z112z1                    1.000000
z136z247z1                    1.000000
z136z222z1                    1.000000
z136z257z1                    1.000000
z136z218z1                    1.000000
z136z9z1                      1.000000
z136z128z1                    1.000000
z136z176z1                    1.000000
z136z80z1                     1.000000
z136z189z1                    1.000000
s145                          5.936080
z145z5z1                      1.000000
z145z72z3                     1.000000
z145z176z1                    1.000000
z145z189z1                    1.000000
z145z217z3                    1.000000
z145z138z3                    1.000000
s53                           5.897770
z53z246z2                     1.000000
z53z213z2                     1.000000
z53z221z2                     1.000000
z53z179z2                     1.000000
z53z144z2                     1.000000
s240                          5.872610
z240z228z1                    1.000000
z240z150z3                    1.000000
z240z72z3                     1.000000
z240z41z3                     1.000000
z240z176z1                    1.000000
z240z175z3                    1.000000
z240z80z1                     1.000000
z240z130z3                    1.000000
z240z189z1                    1.000000
z240z217z3                    1.000000
z240z138z3                    1.000000
s232                          5.601830
z232z172z3                    1.000000
z232z2z3                      1.000000
z232z8z3                      1.000000
z232z72z3                     1.000000
z232z197z3                    1.000000
z232z41z3                     1.000000
z232z175z3                    1.000000
z232z130z3                    1.000000
z232z217z3                    1.000000
z232z138z3                    1.000000
z251z129z1                    1.000000
z251z28z1                     1.000000
z251z176z1                    1.000000
z251z80z1                     1.000000
z251z189z1                    1.000000
s59                           5.310000
z126z221z2                    1.000000
z126z179z2                    1.000000
z126z144z2                    1.000000
z148z221z2                    1.000000
z148z179z2                    1.000000
z148z144z2                    1.000000
z90z176z1                     1.000000
z90z189z1                     1.000000
z90z138z3                     1.000000
z131z176z1                    1.000000
z131z189z1                    1.000000
z60z221z2                     1.000000
z60z179z2                     1.000000
z60z144z2                     1.000000
z37z130z3                     1.000000
z37z217z3                     1.000000
z37z138z3                     1.000000
z268z228z1                    1.000000
z268z176z1                    1.000000
z268z189z1                    1.000000
z70z28z3                      1.000000
z70z15z1                      1.000000
z70z189z1                     1.000000
z70z217z3                     1.000000
z70z138z3                     1.000000
z156z189z1                    1.000000
z156z144z2                    1.000000
z64z138z3                     1.000000
z64z144z2                     1.000000
z89z224z2                     1.000000
z89z221z2                     1.000000
z89z144z2                     1.000000
z254z138z3                    1.000000
z254z144z2                    1.000000
z79z228z1                     1.000000
z79z150z1                     1.000000
z79z189z1                     1.000000
z272z189z1                    1.000000
z206z171z2                    1.000000
z206z61z2                     1.000000
z206z144z2                    1.000000
z226z189z1                    1.000000
z84z221z2                     1.000000
z84z144z2                     1.000000
z114z189z1                    1.000000
z114z144z2                    1.000000
z134z168z2                    1.000000
z134z168z3                    1.000000
z134z138z3                    1.000000
z134z144z2                    1.000000
z77z144z2                     1.000000
z230z189z1                    1.000000
z230z138z3                    1.000000
z187z144z2                    1.000000
z263z138z3                    1.000000
z207z9z1                      1.000000
z129z72z3                     1.000000
z129z176z1                    1.000000
z66z128z1                     1.000000
z205z112z1                    1.000000
z22z171z3                     1.000000
z22z179z2                     1.000000
z228z176z1                    1.000000
z228z61z1                     1.000000
z196z138z3                    1.000000
z196z179z2                    1.000000
z196z144z2                    1.000000
z5z75z1                       1.000000
z5z139z3                      1.000000
z120z144z2                    1.000000
z150z80z1                     1.000000
z150z138z3                    1.000000
z2z41z3                       1.000000
z28z231z1                     1.000000
z222z176z1                    1.000000
z15z139z2                     1.000000
z224z144z2                    1.000000
z218z189z1                    1.000000
z246z221z2                    1.000000
z246z179z2                    1.000000
z197z175z3                    1.000000
z197z217z3                    1.000000
z213z75z2                     1.000000
z213z144z2                    1.000000
z213z231z2                    1.000000
All other variables in the range 1-5124 are 0.
